p tw 89 208
0 1
0 55
0 73
1 11
1 12
1 13
2 3
2 4
2 5
2 6
2 44
2 45
3 4
3 5
3 6
3 75
3 87
4 5
4 6
4 47
4 48
5 6
5 20
5 21
6 37
6 46
7 8
7 11
7 53
7 54
7 55
8 61
8 62
9 10
9 67
9 68
10 25
10 26
10 27
10 28
11 12
11 13
11 53
11 54
11 55
12 13
12 40
12 72
12 73
13 41
13 79
14 15
14 16
14 77
14 85
15 16
15 65
15 76
15 78
16 27
16 69
17 18
17 19
17 53
17 63
18 19
18 51
18 59
19 52
19 60
19 71
20 21
20 24
20 36
20 57
20 88
21 34
21 37
22 23
22 24
22 56
23 24
23 58
23 68
24 36
24 57
24 88
25 26
25 27
25 28
25 38
25 83
26 27
26 28
26 31
26 32
26 33
27 28
27 69
28 39
28 67
28 70
28 74
29 30
29 32
29 74
30 31
30 38
30 39
31 32
31 33
31 38
31 39
32 33
32 74
33 83
34 35
34 36
34 37
35 36
35 82
36 57
36 88
37 46
38 39
38 83
39 67
39 70
39 74
40 41
40 72
40 73
41 79
42 43
42 44
42 78
42 85
42 86
43 44
43 65
43 66
44 45
45 46
47 48
47 87
48 62
48 75
49 50
49 51
49 52
49 84
50 51
50 52
50 80
50 81
51 52
51 59
52 60
52 71
53 54
53 55
53 63
54 55
54 61
54 64
54 72
54 79
55 73
56 57
56 58
57 58
57 88
58 68
59 60
60 71
61 62
61 64
61 72
61 79
62 75
63 64
64 72
64 79
65 66
65 76
65 78
66 86
67 68
67 70
67 74
69 70
70 74
71 80
71 84
72 73
72 79
75 87
76 77
76 78
77 85
78 85
78 86
80 81
80 84
81 82
81 88
82 88
85 86
